c Random generated cnf formula, satisfiable: true
p cnf 10 50
-4 10 -9 0
1 3 7 0
-9 6 3 0
4 3 7 0
7 3 6 0
10 5 -2 0
2 5 -4 0
-7 8 2 0
5 -2 3 0
-10 4 -1 0
-7 9 3 0
-7 -6 9 0
9 -2 -6 0
6 -9 5 0
6 8 -2 0
-8 -9 2 0
4 -7 9 0
-6 2 -9 0
-2 -9 -6 0
-10 -9 -3 0
8 10 5 0
3 10 8 0
2 10 6 0
7 9 -8 0
4 3 9 0
4 -5 -6 0
-8 5 10 0
6 5 7 0
-6 1 -8 0
-10 6 9 0
2 7 1 0
10 -7 -6 0
-6 1 -3 0
5 9 -4 0
-9 2 7 0
5 6 4 0
-10 -7 5 0
8 -7 4 0
-5 -7 9 0
5 -1 -4 0
10 -6 8 0
-3 1 8 0
2 -1 7 0
-10 -6 7 0
-5 -4 3 0
-4 -3 5 0
7 10 4 0
5 -1 -10 0
-10 8 2 0
8 -5 6 0
